unbent-mos2                             
   1.00000000000000     
     3.4320289417696661    0.0000000000000000    0.0000000000000000
     0.0000000000000000   54.5241027219000003    0.0000000000000000
     0.0000000000000000    0.0000000000000000   23.1323900000000009
   Ti   S    H 
    12    24     4
Direct
  0.2500000000000000  0.1901315882334202  0.5264407232580339
  0.2500000000000000  0.2929021076553084  0.5004106753357220
  0.2500000000000000  0.4002614589647777  0.4999895879016947
  0.2500000000000000  0.5087152953252740  0.4980428354844832
  0.2500000000000000  0.6172950247480742  0.5001790671834669
  0.2500000000000000  0.7261831111691066  0.5014792128130239
  0.7500000000000000  0.2406553839224941  0.5042380259897428
  0.7500000000000000  0.3464876699054074  0.4987405880225566
  0.7500000000000000  0.4542858427375336  0.5005786354130422
  0.7500000000000000  0.5632078847078645  0.4976982493535260
  0.7500000000000000  0.6718255929007313  0.5019423174299504
  0.7500000000000000  0.7806650635970058  0.4907289217790591
  0.2500000000000000  0.2163506482083335  0.4510063736243310
  0.2500000000000000  0.2569719433926849  0.5653805512596719
  0.2500000000000000  0.3274228346003980  0.4381728173059969
  0.2500000000000000  0.3636775851507821  0.5601683241066127
  0.2500000000000000  0.4362398381552595  0.4396320529635389
  0.2500000000000000  0.4727632696474231  0.5603409179760845
  0.2500000000000000  0.5448786367566072  0.4376713672223289
  0.2500000000000000  0.5808005575408757  0.5589201091219493
  0.2500000000000000  0.6539546552803870  0.4413727212035923
  0.2500000000000000  0.6903104832521336  0.5620478272659000
  0.2500000000000000  0.7613739292959210  0.4351271154602898
  0.2500000000000000  0.7974865111640170  0.5606692744959645
  0.7500000000000000  0.2029211739561632  0.5817972566084251
  0.7500000000000000  0.2726050260291970  0.4394553382054198
  0.7500000000000000  0.3099667666312840  0.5607516498658853
  0.7500000000000000  0.3821332574629182  0.4387760645267846
  0.7500000000000000  0.4179045068066713  0.5608489832062276
  0.7500000000000000  0.4902013423953875  0.4385619859623731
  0.7500000000000000  0.5269055614792109  0.5581719854514731
  0.7500000000000000  0.5997578561496937  0.4387118151987792
  0.7500000000000000  0.6351760618375053  0.5611132017465081
  0.7500000000000000  0.7077353657901710  0.4412206206994256
  0.7500000000000000  0.7456978872650595  0.5584521303540413
  0.7500000000000000  0.8160300851338320  0.4340790072693608
  0.7500000000000000  0.8333575637278798  0.4751206116410316
  0.2500000000000000  0.8206036284159524  0.5411405620888061
  0.2500000000000000  0.1572565219273514  0.4825527356628072
  0.2500000000000000  0.1670967276484205  0.4582677595421103
 
  0.00000000E+00  0.00000000E+00  0.00000000E+00
  0.00000000E+00  0.00000000E+00  0.00000000E+00
  0.00000000E+00  0.00000000E+00  0.00000000E+00
  0.00000000E+00  0.00000000E+00  0.00000000E+00
  0.00000000E+00  0.00000000E+00  0.00000000E+00
  0.00000000E+00  0.00000000E+00  0.00000000E+00
  0.00000000E+00  0.00000000E+00  0.00000000E+00
  0.00000000E+00  0.00000000E+00  0.00000000E+00
  0.00000000E+00  0.00000000E+00  0.00000000E+00
  0.00000000E+00  0.00000000E+00  0.00000000E+00
  0.00000000E+00  0.00000000E+00  0.00000000E+00
  0.00000000E+00  0.00000000E+00  0.00000000E+00
  0.00000000E+00  0.00000000E+00  0.00000000E+00
  0.00000000E+00  0.00000000E+00  0.00000000E+00
  0.00000000E+00  0.00000000E+00  0.00000000E+00
  0.00000000E+00  0.00000000E+00  0.00000000E+00
  0.00000000E+00  0.00000000E+00  0.00000000E+00
  0.00000000E+00  0.00000000E+00  0.00000000E+00
  0.00000000E+00  0.00000000E+00  0.00000000E+00
  0.00000000E+00  0.00000000E+00  0.00000000E+00
  0.00000000E+00  0.00000000E+00  0.00000000E+00
  0.00000000E+00  0.00000000E+00  0.00000000E+00
  0.00000000E+00  0.00000000E+00  0.00000000E+00
  0.00000000E+00  0.00000000E+00  0.00000000E+00
  0.00000000E+00  0.00000000E+00  0.00000000E+00
  0.00000000E+00  0.00000000E+00  0.00000000E+00
  0.00000000E+00  0.00000000E+00  0.00000000E+00
  0.00000000E+00  0.00000000E+00  0.00000000E+00
  0.00000000E+00  0.00000000E+00  0.00000000E+00
  0.00000000E+00  0.00000000E+00  0.00000000E+00
  0.00000000E+00  0.00000000E+00  0.00000000E+00
  0.00000000E+00  0.00000000E+00  0.00000000E+00
  0.00000000E+00  0.00000000E+00  0.00000000E+00
  0.00000000E+00  0.00000000E+00  0.00000000E+00
  0.00000000E+00  0.00000000E+00  0.00000000E+00
  0.00000000E+00  0.00000000E+00  0.00000000E+00
  0.00000000E+00  0.00000000E+00  0.00000000E+00
  0.00000000E+00  0.00000000E+00  0.00000000E+00
  0.00000000E+00  0.00000000E+00  0.00000000E+00
  0.00000000E+00  0.00000000E+00  0.00000000E+00
