bent-mos2                               
   1.00000000000000     
     3.4496343665575400    0.0000000000000000    0.0000000000000000
     0.0000000000000000   45.6920202896357921    0.0000000000000000
     0.0000000000000000    0.0000000000000000   31.1047143910065529
   Ti   S    H 
    12    24     4
Selective dynamics
Direct
  0.2500000000000000  0.2527733488048867  0.0530878303603757   T   F   F
  0.7500000000000000  0.2773917962243814  0.1374023328556530   T   T   T
  0.2500000000000000  0.3043243993704614  0.2232684307235162   T   T   T
  0.7500000000000000  0.3484358889885038  0.2946958827562737   T   T   T
  0.2500000000000000  0.4045822196736434  0.3439865966975609   T   T   T
  0.7500000000000000  0.4676069771468614  0.3685865457869074   T   T   T
  0.2500000000000000  0.5331660296118068  0.3685647603850474   T   T   T
  0.7500000000000000  0.5962410974459680  0.3436764524376297   T   T   T
  0.2500000000000000  0.6533670507736563  0.2975437325972454   T   T   T
  0.7500000000000000  0.6986716712191643  0.2281619019467437   T   T   T
  0.2500000000000000  0.7309736739762890  0.1459556348327913   T   T   T
  0.7500000000000000  0.7472266511951133  0.0530878303603757   T   F   F
  0.2500000000000000  0.2974802564598896  0.0911925275718165   T   T   T
  0.7500000000000000  0.3220791616843803  0.1732557968600628   T   T   T
  0.2500000000000000  0.3553188117827177  0.2411613346597351   T   T   T
  0.7500000000000000  0.4007547304541801  0.2897406848283688   T   T   T
  0.2500000000000000  0.4539708426702709  0.3179453020006440   T   T   T
  0.7500000000000000  0.5109391891923089  0.3247438638440512   T   T   T
  0.2500000000000000  0.5672456947941806  0.3096883861048492   T   T   T
  0.7500000000000000  0.6193347924036546  0.2750265079132264   T   T   T
  0.2500000000000000  0.6620297083153541  0.2211201146958869   T   T   T
  0.7500000000000000  0.6938800138756962  0.1515096945933403   T   T   T
  0.2500000000000000  0.7135400820964604  0.0705620050078505   T   T   T
  0.7500000000000000  0.7308825464488425  0.9817540134570453   T   T   T
  0.7500000000000000  0.2312210706333871  0.0911367724976516   T   T   T
  0.2500000000000000  0.2583957492108200  0.1863348152887339   T   T   T
  0.7500000000000000  0.2963665669088718  0.2766031040911299   T   T   T
  0.2500000000000000  0.3512894227898862  0.3498528244656136   T   T   T
  0.7500000000000000  0.4177210942565686  0.3956517257587352   T   T   T
  0.2500000000000000  0.4893952748984134  0.4133256254736378   T   T   T
  0.7500000000000000  0.5618870528054291  0.4036835473709415   T   T   T
  0.2500000000000000  0.6302593900882951  0.3676248313759858   T   T   T
  0.7500000000000000  0.6904245713845745  0.3058581152670983   T   T   T
  0.2500000000000000  0.7363055481328691  0.2231253803198885   T   T   T
  0.7500000000000000  0.7658781054654112  0.1279505778369320   T   T   T
  0.2500000000000000  0.7866299942761473  0.0378577096256538   T   T   T
  0.7500000000000000  0.7565558813617402  0.9609566266398052   T   T   T
  0.2500000000000000  0.7839987293384640  0.9949975478206153   T   T   T
  0.2500000000000000  0.2803960361992308  0.0170552360869171   T   T   T
  0.2500000000000000  0.2469465752199572  0.9990843066067402   T   T   T
 
  0.00000000E+00  0.00000000E+00  0.00000000E+00
  0.00000000E+00  0.00000000E+00  0.00000000E+00
  0.00000000E+00  0.00000000E+00  0.00000000E+00
  0.00000000E+00  0.00000000E+00  0.00000000E+00
  0.00000000E+00  0.00000000E+00  0.00000000E+00
  0.00000000E+00  0.00000000E+00  0.00000000E+00
  0.00000000E+00  0.00000000E+00  0.00000000E+00
  0.00000000E+00  0.00000000E+00  0.00000000E+00
  0.00000000E+00  0.00000000E+00  0.00000000E+00
  0.00000000E+00  0.00000000E+00  0.00000000E+00
  0.00000000E+00  0.00000000E+00  0.00000000E+00
  0.00000000E+00  0.00000000E+00  0.00000000E+00
  0.00000000E+00  0.00000000E+00  0.00000000E+00
  0.00000000E+00  0.00000000E+00  0.00000000E+00
  0.00000000E+00  0.00000000E+00  0.00000000E+00
  0.00000000E+00  0.00000000E+00  0.00000000E+00
  0.00000000E+00  0.00000000E+00  0.00000000E+00
  0.00000000E+00  0.00000000E+00  0.00000000E+00
  0.00000000E+00  0.00000000E+00  0.00000000E+00
  0.00000000E+00  0.00000000E+00  0.00000000E+00
  0.00000000E+00  0.00000000E+00  0.00000000E+00
  0.00000000E+00  0.00000000E+00  0.00000000E+00
  0.00000000E+00  0.00000000E+00  0.00000000E+00
  0.00000000E+00  0.00000000E+00  0.00000000E+00
  0.00000000E+00  0.00000000E+00  0.00000000E+00
  0.00000000E+00  0.00000000E+00  0.00000000E+00
  0.00000000E+00  0.00000000E+00  0.00000000E+00
  0.00000000E+00  0.00000000E+00  0.00000000E+00
  0.00000000E+00  0.00000000E+00  0.00000000E+00
  0.00000000E+00  0.00000000E+00  0.00000000E+00
  0.00000000E+00  0.00000000E+00  0.00000000E+00
  0.00000000E+00  0.00000000E+00  0.00000000E+00
  0.00000000E+00  0.00000000E+00  0.00000000E+00
  0.00000000E+00  0.00000000E+00  0.00000000E+00
  0.00000000E+00  0.00000000E+00  0.00000000E+00
  0.00000000E+00  0.00000000E+00  0.00000000E+00
  0.00000000E+00  0.00000000E+00  0.00000000E+00
  0.00000000E+00  0.00000000E+00  0.00000000E+00
  0.00000000E+00  0.00000000E+00  0.00000000E+00
  0.00000000E+00  0.00000000E+00  0.00000000E+00
